441,406
385,452
554,279
630,81
681,-14
718,169
672,378
831,406
624,388
563,388
613,539
560,494
468,514
441,528
464,-21
317,142
356,457
704,554
829,383
909,332
893,194
773,121
658,258
425,489
321,766
477,806
753,458
1006,457
1069,688
977,702
737,761
746,820
518,726
